c cnf/enc2_c2d.cnf
c bif/cancer.bif
c
p cnf 20 30
c weights 1 1 1 1 0.9 0.09999999999999998 1 1 1 1 0.3 0.7 1 1 1 1 0.03 0.97 0.001 0.999 0.05 0.95 0.02 0.98 1 1 1 1 0.9 0.09999999999999998 0.2 0.8 1 1 1 1 0.65 0.35 0.3 0.7
1 2 0
-1 -2 0
-3 1 0
3 2 0
4 5 0
-4 -5 0
-6 4 0
6 5 0
7 8 0
-7 -8 0
-1 -4 -9 7 0
-1 -5 -10 7 0
-2 -4 -11 7 0
-2 -5 -12 7 0
-1 -4 9 8 0
-1 -5 10 8 0
-2 -4 11 8 0
-2 -5 12 8 0
13 14 0
-13 -14 0
-7 -15 13 0
-8 -16 13 0
-7 15 14 0
-8 16 14 0
17 18 0
-17 -18 0
-7 -19 17 0
-8 -20 17 0
-7 19 18 0
-8 20 18 0
